9
1 0 0 417
2 0 23 40
3 0 171 177
4 0 85 115
5 0 68 76
6 0 0 20
7 0 308 337
8 0 109 119
9 0 46 68
1 2 21
1 3 30
1 4 21
1 5 34
1 6 3
1 7 2
1 8 32
1 9 36
2 1 21
2 3 23
2 4 10
2 5 23
2 6 24
2 7 21
2 8 30
2 9 17
3 1 30
3 2 23
3 4 13
3 5 6
3 6 31
3 7 31
3 8 9
3 9 18
4 1 21
4 2 10
4 3 13
4 5 15
4 6 23
4 7 21
4 8 20
4 9 16
5 1 34
5 2 23
5 3 6
5 4 15
5 6 36
5 7 35
5 8 14
5 9 14
6 1 3
6 2 24
6 3 31
6 4 23
6 5 36
6 7 4
6 8 32
6 9 39
7 1 2
7 2 21
7 3 31
7 4 21
7 5 35
7 6 4
7 8 34
7 9 36
8 1 32
8 2 30
8 3 9
8 4 20
8 5 14
8 6 32
8 7 34
8 9 27
9 1 36
9 2 17
9 3 18
9 4 16
9 5 14
9 6 39
9 7 36
9 8 27
